ilp_joint_2/output/orbit_ilp.lp
Maximize
 
Subject To
 constraint2_1180: <= 1
 constraint2_1181: <= 1
 constraint2_1182: <= 1
 constraint2_1183: <= 1
Bounds
End
