ilp_joint_2/output/orbit_ilp.mps
NAME orbit_srl_ilp
* Max problem is converted into Min one
ROWS
 N  OBJ
 L  constraint2_1180
 L  constraint2_1181
 L  constraint2_1182
 L  constraint2_1183
COLUMNS
RHS
    RHS1      constraint2_1180  1
    RHS1      constraint2_1181  1
    RHS1      constraint2_1182  1
    RHS1      constraint2_1183  1
BOUNDS
ENDATA
