ilp_joint_2/output/orbit_ilp.sol
# Solution for model orbit_srl_ilp
# Objective value = 0
